p cnf 168 211
-1 2 3 9 10 11 12 13 14 15 16 17 18 19 20 21 22 23 24 25 26 27 63 64 65 66 67 68 69 71 72 75 76 77 78 79 99 100 101 102 103 105 106 166 -159 0 
-2 1 3 9 10 11 12 13 14 15 16 17 18 19 20 21 22 23 24 25 26 27 63 64 65 66 67 68 69 71 72 75 76 77 78 79 99 100 101 102 103 105 106 166 -159 0 
-3 1 2 9 10 11 12 13 14 15 16 17 18 19 20 21 22 23 24 25 26 27 63 64 65 66 67 68 69 71 72 75 76 77 78 79 99 100 101 102 103 105 106 166 -159 0 
-4 111 117 140 166 -159 0 
-5 -6 61 -7 110 112 124 143 146 -8 144 166 -159 0 
-9 1 2 3 10 11 12 13 14 15 16 17 18 19 20 21 22 23 24 25 26 27 63 64 65 66 67 68 69 71 72 75 76 77 78 79 99 100 101 102 103 105 106 166 -159 0 
-10 1 2 3 9 11 12 13 14 15 16 17 18 19 20 21 22 23 24 25 26 27 63 64 65 66 67 68 69 71 72 75 76 77 78 79 99 100 101 102 103 105 106 166 -159 0 
-11 1 2 3 9 10 12 13 14 15 16 17 18 19 20 21 22 23 24 25 26 27 63 64 65 66 67 68 69 71 72 75 76 77 78 79 99 100 101 102 103 105 106 166 -159 0 
-12 1 2 3 9 10 11 13 14 15 16 17 18 19 20 21 22 23 24 25 26 27 63 64 65 66 67 68 69 71 72 75 76 77 78 79 99 100 101 102 103 105 106 166 -159 0 
-13 1 2 3 9 10 11 12 14 15 16 17 18 19 20 21 22 23 24 25 26 27 63 64 65 66 67 68 69 71 72 75 76 77 78 79 99 100 101 102 103 105 106 166 -159 0 
-14 1 2 3 9 10 11 12 13 15 16 17 18 19 20 21 22 23 24 25 26 27 63 64 65 66 67 68 69 71 72 75 76 77 78 79 99 100 101 102 103 105 106 166 -159 0 
-15 1 2 3 9 10 11 12 13 14 16 17 18 19 20 21 22 23 24 25 26 27 63 64 65 66 67 68 69 71 72 75 76 77 78 79 99 100 101 102 103 105 106 166 -159 0 
-16 1 2 3 9 10 11 12 13 14 15 17 18 19 20 21 22 23 24 25 26 27 63 64 65 66 67 68 69 71 72 75 76 77 78 79 99 100 101 102 103 105 106 166 -159 0 
-17 1 2 3 9 10 11 12 13 14 15 16 18 19 20 21 22 23 24 25 26 27 63 64 65 66 67 68 69 71 72 75 76 77 78 79 99 100 101 102 103 105 106 166 -159 0 
-18 1 2 3 9 10 11 12 13 14 15 16 17 19 20 21 22 23 24 25 26 27 63 64 65 66 67 68 69 71 72 75 76 77 78 79 99 100 101 102 103 105 106 166 -159 0 
-19 1 2 3 9 10 11 12 13 14 15 16 17 18 20 21 22 23 24 25 26 27 63 64 65 66 67 68 69 71 72 75 76 77 78 79 99 100 101 102 103 105 106 166 -159 0 
-20 1 2 3 9 10 11 12 13 14 15 16 17 18 19 21 22 23 24 25 26 27 63 64 65 66 67 68 69 71 72 75 76 77 78 79 99 100 101 102 103 105 106 166 -159 0 
-21 1 2 3 9 10 11 12 13 14 15 16 17 18 19 20 22 23 24 25 26 27 63 64 65 66 67 68 69 71 72 75 76 77 78 79 99 100 101 102 103 105 106 166 -159 0 
-22 1 2 3 9 10 11 12 13 14 15 16 17 18 19 20 21 23 24 25 26 27 63 64 65 66 67 68 69 71 72 75 76 77 78 79 99 100 101 102 103 105 106 166 -159 0 
-23 1 2 3 9 10 11 12 13 14 15 16 17 18 19 20 21 22 24 25 26 27 63 64 65 66 67 68 69 71 72 75 76 77 78 79 99 100 101 102 103 105 106 166 -159 0 
-24 1 2 3 9 10 11 12 13 14 15 16 17 18 19 20 21 22 23 25 26 27 63 64 65 66 67 68 69 71 72 75 76 77 78 79 99 100 101 102 103 105 106 166 -159 0 
-25 1 2 3 9 10 11 12 13 14 15 16 17 18 19 20 21 22 23 24 26 27 63 64 65 66 67 68 69 71 72 75 76 77 78 79 99 100 101 102 103 105 106 166 -159 0 
-26 1 2 3 9 10 11 12 13 14 15 16 17 18 19 20 21 22 23 24 25 27 63 64 65 66 67 68 69 71 72 75 76 77 78 79 99 100 101 102 103 105 106 166 -159 0 
-27 1 2 3 9 10 11 12 13 14 15 16 17 18 19 20 21 22 23 24 25 26 63 64 65 66 67 68 69 71 72 75 76 77 78 79 99 100 101 102 103 105 106 -28 166 -159 0 
-29 166 -159 0 
-30 -6 61 166 -159 0 
-31 32 33 34 95 107 120 -6 61 166 -159 0 
-32 31 33 34 95 107 120 -6 61 166 -159 0 
-33 31 32 34 95 107 120 -6 61 166 -159 0 
-34 31 32 33 95 107 120 -6 61 166 -159 0 
-28 -35 166 -159 0 
-36 43 56 70 80 83 97 108 163 -6 61 166 -159 0 
-37 73 82 115 135 -38 166 -159 0 
-39 166 -159 0 
-40 45 46 54 167 0 
-28 166 -159 0 
-39 -41 118 160 166 -159 0 
-42 -37 73 82 115 135 166 -159 0 
-39 -43 36 56 70 80 83 97 108 163 166 -159 0 
-42 -41 118 160 166 -159 0 
-44 166 -159 0 
-41 118 160 -6 61 166 -159 0 
-45 40 46 54 166 -159 0 
-46 40 45 54 -36 43 56 70 80 83 97 108 163 166 -159 0 
-40 45 46 54 -47 167 0 
-40 45 46 54 -42 -48 149 166 -159 0 
-49 -46 40 45 54 166 -159 0 
-50 -51 166 -159 0 
-46 40 45 54 -42 -52 -37 73 82 115 135 166 -159 0 
-53 -54 40 45 46 -55 86 166 -159 0 
-56 36 43 70 80 83 97 108 163 166 -159 0 
-40 45 46 54 166 -159 0 
-37 73 82 115 135 166 -159 0 
-57 166 -159 0 
-58 74 166 -159 0 
-43 36 56 70 80 83 97 108 163 -59 139 -60 -6 61 166 -159 0 
-28 -61 6 -38 166 -159 0 
-62 -6 61 166 -159 0 
-35 166 -159 0 
-63 1 2 3 9 10 11 12 13 14 15 16 17 18 19 20 21 22 23 24 25 26 27 64 65 66 67 68 69 71 72 75 76 77 78 79 99 100 101 102 103 105 106 166 -159 0 
-36 43 56 70 80 83 97 108 163 166 -159 0 
-43 36 56 70 80 83 97 108 163 166 -159 0 
-64 1 2 3 9 10 11 12 13 14 15 16 17 18 19 20 21 22 23 24 25 26 27 63 65 66 67 68 69 71 72 75 76 77 78 79 99 100 101 102 103 105 106 166 -159 0 
-65 1 2 3 9 10 11 12 13 14 15 16 17 18 19 20 21 22 23 24 25 26 27 63 64 66 67 68 69 71 72 75 76 77 78 79 99 100 101 102 103 105 106 166 -159 0 
-66 1 2 3 9 10 11 12 13 14 15 16 17 18 19 20 21 22 23 24 25 26 27 63 64 65 67 68 69 71 72 75 76 77 78 79 99 100 101 102 103 105 106 166 -159 0 
-67 1 2 3 9 10 11 12 13 14 15 16 17 18 19 20 21 22 23 24 25 26 27 63 64 65 66 68 69 71 72 75 76 77 78 79 99 100 101 102 103 105 106 166 -159 0 
-68 1 2 3 9 10 11 12 13 14 15 16 17 18 19 20 21 22 23 24 25 26 27 63 64 65 66 67 69 71 72 75 76 77 78 79 99 100 101 102 103 105 106 166 -159 0 
-69 1 2 3 9 10 11 12 13 14 15 16 17 18 19 20 21 22 23 24 25 26 27 63 64 65 66 67 68 71 72 75 76 77 78 79 99 100 101 102 103 105 106 166 -159 0 
-70 36 43 56 80 83 97 108 163 166 -159 0 
-71 1 2 3 9 10 11 12 13 14 15 16 17 18 19 20 21 22 23 24 25 26 27 63 64 65 66 67 68 69 72 75 76 77 78 79 99 100 101 102 103 105 106 166 -159 0 
-72 1 2 3 9 10 11 12 13 14 15 16 17 18 19 20 21 22 23 24 25 26 27 63 64 65 66 67 68 69 71 75 76 77 78 79 99 100 101 102 103 105 106 166 -159 0 
-73 37 82 115 135 166 -159 0 
-74 58 166 -159 0 
-75 1 2 3 9 10 11 12 13 14 15 16 17 18 19 20 21 22 23 24 25 26 27 63 64 65 66 67 68 69 71 72 76 77 78 79 99 100 101 102 103 105 106 166 -159 0 
-76 1 2 3 9 10 11 12 13 14 15 16 17 18 19 20 21 22 23 24 25 26 27 63 64 65 66 67 68 69 71 72 75 77 78 79 99 100 101 102 103 105 106 166 -159 0 
-77 1 2 3 9 10 11 12 13 14 15 16 17 18 19 20 21 22 23 24 25 26 27 63 64 65 66 67 68 69 71 72 75 76 78 79 99 100 101 102 103 105 106 166 -159 0 
-78 1 2 3 9 10 11 12 13 14 15 16 17 18 19 20 21 22 23 24 25 26 27 63 64 65 66 67 68 69 71 72 75 76 77 79 99 100 101 102 103 105 106 166 -159 0 
-79 1 2 3 9 10 11 12 13 14 15 16 17 18 19 20 21 22 23 24 25 26 27 63 64 65 66 67 68 69 71 72 75 76 77 78 99 100 101 102 103 105 106 166 -159 0 
-80 36 43 56 70 83 97 108 163 166 -159 0 
-81 98 104 132 151 166 -159 0 
-82 37 73 115 135 166 -159 0 
-41 118 160 166 -159 0 
-83 36 43 56 70 80 97 108 163 166 -159 0 
-38 -61 6 166 -159 0 
-84 -85 -42 -86 55 -87 166 -159 0 
-6 61 -88 166 -159 0 
-87 -28 -6 61 -88 166 -159 0 
-85 -28 -37 73 82 115 135 -89 92 138 166 -159 0 
-90 -91 -92 89 138 166 -159 0 
-6 61 166 -159 0 
-55 86 -4 111 117 140 166 -159 0 
-57 -38 166 -159 0 
-28 -38 166 -159 0 
-28 -6 61 166 -159 0 
-37 73 82 115 135 -57 -6 61 166 -159 0 
-93 94 -36 43 56 70 80 83 97 108 163 -37 73 82 115 135 166 -159 0 
-94 93 -6 61 166 -159 0 
-95 31 32 33 34 107 120 -6 61 166 -159 0 
-28 -37 73 82 115 135 166 -159 0 
-42 -39 -38 166 -159 0 
-86 55 -87 -28 -37 73 82 115 135 166 -159 0 
-82 37 73 115 135 -41 118 160 -6 61 166 -159 0 
-39 -35 166 -159 0 
-83 36 43 56 70 80 97 108 163 -6 61 166 -159 0 
-96 166 -159 0 
-97 36 43 56 70 80 83 108 163 166 -159 0 
-98 81 104 132 151 -6 61 166 -159 0 
-99 1 2 3 9 10 11 12 13 14 15 16 17 18 19 20 21 22 23 24 25 26 27 63 64 65 66 67 68 69 71 72 75 76 77 78 79 100 101 102 103 105 106 166 -159 0 
-100 1 2 3 9 10 11 12 13 14 15 16 17 18 19 20 21 22 23 24 25 26 27 63 64 65 66 67 68 69 71 72 75 76 77 78 79 99 101 102 103 105 106 166 -159 0 
-101 1 2 3 9 10 11 12 13 14 15 16 17 18 19 20 21 22 23 24 25 26 27 63 64 65 66 67 68 69 71 72 75 76 77 78 79 99 100 102 103 105 106 166 -159 0 
-102 1 2 3 9 10 11 12 13 14 15 16 17 18 19 20 21 22 23 24 25 26 27 63 64 65 66 67 68 69 71 72 75 76 77 78 79 99 100 101 103 105 106 166 -159 0 
-103 1 2 3 9 10 11 12 13 14 15 16 17 18 19 20 21 22 23 24 25 26 27 63 64 65 66 67 68 69 71 72 75 76 77 78 79 99 100 101 102 105 106 166 -159 0 
-104 81 98 132 151 166 -159 0 
-105 1 2 3 9 10 11 12 13 14 15 16 17 18 19 20 21 22 23 24 25 26 27 63 64 65 66 67 68 69 71 72 75 76 77 78 79 99 100 101 102 103 106 166 -159 0 
-106 1 2 3 9 10 11 12 13 14 15 16 17 18 19 20 21 22 23 24 25 26 27 63 64 65 66 67 68 69 71 72 75 76 77 78 79 99 100 101 102 103 105 166 -159 0 
-28 -61 6 -88 166 -159 0 
-107 31 32 33 34 95 120 166 -159 0 
-108 36 43 56 70 80 83 97 163 -109 165 166 -159 0 
-39 -82 37 73 115 135 -38 166 -159 0 
-109 165 166 -159 0 
-49 -6 61 166 -159 0 
-6 61 -110 7 112 124 143 146 166 -159 0 
-111 4 117 140 166 -159 0 
-28 -61 6 -112 7 110 124 143 146 -113 145 147 166 -159 0 
-114 166 -159 0 
-37 73 82 115 135 -6 61 166 -159 0 
-115 37 73 82 135 -6 61 166 -159 0 
-43 36 56 70 80 83 97 108 163 -6 61 166 -159 0 
-87 -28 -6 61 -116 166 -159 0 
-116 166 -159 0 
-94 93 -117 4 111 140 166 -159 0 
-87 -28 -37 73 82 115 135 -6 61 166 -159 0 
-118 41 160 -95 31 32 33 34 107 120 -39 166 -159 0 
-119 158 167 0 
-120 31 32 33 34 95 107 166 -159 0 
-46 40 45 54 166 -159 0 
-87 166 -159 0 
-121 166 -159 0 
-39 -83 36 43 56 70 80 97 108 163 166 -159 0 
-28 167 0 
-42 -122 137 166 -159 0 
-123 166 -159 0 
-85 -124 7 110 112 143 146 -6 61 166 -159 0 
-86 55 -37 73 82 115 135 -6 61 166 -159 0 
-29 -6 61 166 -159 0 
-125 168 0 
-95 31 32 33 34 107 120 168 0 
-6 61 -126 128 166 -159 0 
-127 166 -159 0 
-6 61 -128 126 166 -159 0 
-129 -6 61 -128 126 166 -159 0 
-130 164 166 -159 0 
-131 166 -159 0 
-132 81 98 104 151 -93 94 -133 -134 -83 36 43 56 70 80 97 108 163 166 -159 0 
-135 37 73 82 115 -133 -83 36 43 56 70 80 97 108 163 166 -159 0 
-135 37 73 82 115 -133 -41 118 160 166 -159 0 
-49 -136 -45 40 46 54 166 -159 0 
-89 92 138 -6 61 166 -159 0 
-137 122 166 -159 0 
-28 -82 37 73 115 135 166 -159 0 
-39 -37 73 82 115 135 166 -159 0 
-138 89 92 -38 166 -159 0 
-42 -38 166 -159 0 
-139 59 -6 61 166 -159 0 
-140 4 111 117 166 -159 0 
-4 111 117 140 166 -159 0 
-125 -60 -61 6 166 -159 0 
-39 -82 37 73 115 135 -6 61 166 -159 0 
-141 168 0 
-142 168 0 
-60 -6 61 -143 7 110 112 124 146 -144 8 -145 113 147 166 -159 0 
-60 -35 166 -159 0 
-61 6 -146 7 110 112 124 143 -147 113 145 166 -159 0 
-148 150 -40 45 46 54 -42 -115 37 73 82 135 -85 166 -159 0 
-149 48 -142 -82 37 73 115 135 -42 -41 118 160 166 -159 0 
-40 45 46 54 -42 -90 -115 37 73 82 135 166 -159 0 
-40 45 46 54 -42 -115 37 73 82 135 166 -159 0 
-150 148 166 -159 0 
-46 40 45 54 -37 73 82 115 135 -86 55 -42 -87 166 -159 0 
-42 -118 41 160 166 -159 0 
-151 81 98 104 132 -152 166 -159 0 
-153 166 -159 0 
-93 94 -118 41 160 -82 37 73 115 135 -154 -83 36 43 56 70 80 97 108 163 166 -159 0 
-6 61 -116 166 -159 0 
-87 168 0 
-74 58 168 0 
-155 -50 -6 61 166 -159 0 
-133 166 -159 0 
-156 166 -159 0 
-156 167 0 
-129 -156 166 -159 0 
-148 150 -45 40 46 54 -90 166 -159 0 
-45 40 46 54 -43 36 56 70 80 83 97 108 163 166 -159 0 
-52 -42 -115 37 73 82 135 -84 166 -159 0 
-57 168 0 
-157 166 -159 0 
-158 119 167 0 
-159 167 0 
-85 -6 61 166 -159 0 
-118 41 160 166 -159 0 
-43 36 56 70 80 83 97 108 163 -111 4 117 140 166 -159 0 
-160 41 118 -6 61 166 -159 0 
-46 40 45 54 -37 73 82 115 135 166 -159 0 
-74 58 -43 36 56 70 80 83 97 108 163 -161 -162 -6 61 166 -159 0 
-90 -36 43 56 70 80 83 97 108 163 -37 73 82 115 135 166 -159 0 
-45 40 46 54 -28 166 -159 0 
-82 37 73 115 135 -41 118 160 -57 -6 61 166 -159 0 
-163 36 43 56 70 80 83 97 108 -164 130 166 -159 0 
-45 40 46 54 -43 36 56 70 80 83 97 108 163 -111 4 117 140 166 -159 0 
-118 41 160 -95 31 32 33 34 107 120 -165 109 166 -159 0 
-136 166 -159 0 
